5 8 -85 -51 49 -14 -45 -44 -40 0
5 70 -56 8 -85 -51 49 -14 -45 -44 0
-63 70 -24 -85 -45 -44 0
5 44 78 52 -42 -40 -35 95 0
-63 67 -61 46 78 -76 87 31 0
33 -92 -99 -42 0
5 70 -85 44 78 -99 -45 -40 -35 0
-31 5 -86 78 -45 -97 0
-31 5 -86 44 78 -45 -35 0
-31 5 44 78 -35 -14 -45 58 -99 0
48 -46 -75 0
5 10 48 -35 -46 -14 -72 -99 0
10 78 86 58 -99 0
-63 5 70 -85 44 78 -45 -35 0
-63 5 70 -85 44 78 -45 0
34 -85 44 78 -40 0
35 100 70 -85 44 78 -45 -5 0
-63 70 -24 -85 -45 0
0
